"sdp problem"
15 = mDIM
1 = nBLOCK
-15 = bLOCKsTRUCT
{   -3.6839404693E-15,    0.0000000000E+00,    0.0000000000E+00,   -1.9409945544E-10,    0.0000000000E+00,    1.0174933388E-07,    0.0000000000E+00,    0.0000000000E+00,    0.0000000000E+00,    0.0000000000E+00,   -1.0174933388E-07,    0.0000000000E+00,    1.9409945544E-10,    0.0000000000E+00,    0.0000000000E+00}
0   1   1   1    0.1319021
0   1   2   2   **********
1   1   1   1    0.0000000
1   1   2   2    0.2500000
2   1   1   1    0.0000000
2   1   2   2    0.0000000
3   1   1   1    0.0000000
3   1   2   2    0.0000000
4   1   1   1    0.0000000
4   1   2   2    0.0000000
5   1   1   1    0.0000000
5   1   2   2    0.0000000
6   1   1   1    0.0000000
6   1   2   2   -0.5000000
7   1   1   1    0.0000000
7   1   2   2    0.0000000
8   1   1   1    0.0000000
8   1   2   2    0.0000000
9   1   1   1    0.0000000
9   1   2   2    0.0000000
10   1   1   1    0.0000000
10   1   2   2    0.0000000
11   1   1   1    0.0000000
11   1   2   2    0.0000000
12   1   1   1    0.0000000
12   1   2   2    0.0000000
13   1   1   1    0.0000000
13   1   2   2    0.0000000
14   1   1   1    0.0000000
14   1   2   2    0.0000000
15   1   1   1    0.0000000
15   1   2   2    0.0000000
